data;

set J := 1 2 3 4 5 6 7 8 9 10 11 12 13 14 15 16 17 18 19 20 21 22 23 24 25 26 27 28 29 30 31 32 33 34 35 36 37 38 39 40 41 42 43 44 45 46 47 48 49 50 51 52 53 54 55 56 57 58 59 60 61 62 63 64 65 66 67 68 69 70 71 72 73 74 75 76 77 78 79 80 81 82 83 84 85 86 87 88 89 90 91 92 93 94 95 96 97 98 99 100 101 102 103 104 105 106 107 108 109 110 111 112 113 114 115 116 117 118 119 120 121 122 123 124 125 126 127 128 129 130 131 132 133 134 135 136 137 138 139 140 141 142 143 144 145 146 147 148 149 150 151 152 153 154 155 156 157 158 159 160 161 162 163 164 165 166 167 168 169 170 171 172 173 174 175 176 177 178 179 180 181 182 183 184 185 186 187 188 189 190 191 192 193 194 195 196 197 198 199 200 201 202 203 204 205 206 207 208 209 210 211 212 213 214 215 216 217 218 219 220 221 222 223 224 225 226 227 228 229 230 231 232 233 234 235 236 237 238 239 240 241 242 243 244 245 246 247 248 249 250;
set I := 1 2 3 4 5 6 7 8 9 10 11 12 13 14 15 16 17 18 19 20 21 22 23 24 25 26 27 28 29 30 31 32 33 34 35 36 37 38 39 40 41 42 43 44 45 46 47 48 49 50 51 52 53 54 55 56 57 58 59 60 61 62 63 64 65 66 67 68 69 70 71 72 73 74 75 76 77 78 79 80 81 82 83 84 85 86 87 88 89 90 91 92 93 94 95 96 97 98 99 100 101 102 103 104 105 106 107 108 109 110 111 112 113 114 115 116 117 118 119 120 121 122 123 124 125 126 127 128 129 130 131 132 133 134 135 136 137 138 139 140 141 142 143 144 145 146 147 148 149 150 151 152 153 154 155 156 157 158 159 160 161 162 163 164 165 166 167 168 169 170 171 172 173 174 175 176 177 178 179 180 181 182 183 184 185 186 187 188 189 190 191 192 193 194 195 196 197 198 199 200 201 202 203 204;

param p := 
    1 12
    2 147
    3 118
    4 26
    5 23
    6 116
    7 86
    8 85
    9 79
    10 145
    11 71
    12 73
    13 46
    14 123
    15 39
    16 38
    17 80
    18 102
    19 68
    20 143
    21 1
    22 64
    23 119
    24 121
    25 64
    26 27
    27 130
    28 7
    29 117
    30 42
    31 66
    32 144
    33 146
    34 111
    35 60
    36 62
    37 101
    38 14
    39 31
    40 103
    41 133
    42 74
    43 27
    44 65
    45 106
    46 80
    47 98
    48 90
    49 143
    50 41
    51 97
    52 58
    53 53
    54 130
    55 87
    56 26
    57 56
    58 146
    59 145
    60 138
    61 121
    62 11
    63 11
    64 133
    65 16
    66 125
    67 52
    68 107
    69 68
    70 136
    71 132
    72 47
    73 10
    74 50
    75 86
    76 72
    77 131
    78 98
    79 143
    80 131
    81 53
    82 89
    83 67
    84 65
    85 39
    86 127
    87 36
    88 77
    89 91
    90 1
    91 72
    92 70
    93 87
    94 79
    95 2
    96 112
    97 128
    98 95
    99 50
    100 24
    101 78
    102 91
    103 71
    104 123
    105 80
    106 36
    107 150
    108 152
    109 127
    110 90
    111 25
    112 30
    113 152
    114 40
    115 57
    116 34
    117 116
    118 129
    119 42
    120 139
    121 96
    122 45
    123 50
    124 98
    125 101
    126 26
    127 140
    128 34
    129 15
    130 52
    131 73
    132 93
    133 65
    134 17
    135 134
    136 83
    137 70
    138 65
    139 152
    140 61
    141 80
    142 75
    143 135
    144 7
    145 121
    146 79
    147 21
    148 28
    149 14
    150 74
    151 122
    152 66
    153 2
    154 118
    155 94
    156 133
    157 136
    158 133
    159 139
    160 75
    161 102
    162 15
    163 30
    164 8
    165 52
    166 23
    167 100
    168 82
    169 85
    170 34
    171 47
    172 44
    173 6
    174 106
    175 35
    176 134
    177 7
    178 135
    179 51
    180 50
    181 141
    182 84
    183 153
    184 104
    185 59
    186 142
    187 36
    188 109
    189 60
    190 104
    191 86
    192 41
    193 61
    194 61
    195 50
    196 34
    197 34
    198 134
    199 52
    200 137
    201 142
    202 147
    203 146
    204 116
    205 17
    206 138
    207 138
    208 56
    209 12
    210 79
    211 76
    212 119
    213 14
    214 100
    215 117
    216 11
    217 81
    218 16
    219 126
    220 137
    221 115
    222 20
    223 111
    224 73
    225 88
    226 66
    227 129
    228 26
    229 20
    230 107
    231 113
    232 61
    233 85
    234 47
    235 34
    236 98
    237 57
    238 84
    239 141
    240 79
    241 59
    242 125
    243 78
    244 43
    245 18
    246 37
    247 102
    248 42
    249 106
    250 120;

param r := 
    1 88
    2 7
    3 61
    4 35
    5 6
    6 147
    7 137
    8 179
    9 177
    10 23
    11 155
    12 117
    13 95
    14 62
    15 85
    16 139
    17 41
    18 134
    19 34
    20 140
    21 84
    22 19
    23 167
    24 34
    25 6
    26 39
    27 98
    28 116
    29 33
    30 53
    31 26
    32 51
    33 81
    34 21
    35 63
    36 81
    37 157
    38 64
    39 176
    40 40
    41 163
    42 160
    43 135
    44 51
    45 174
    46 123
    47 153
    48 167
    49 38
    50 166
    51 55
    52 20
    53 159
    54 48
    55 70
    56 93
    57 70
    58 84
    59 59
    60 34
    61 102
    62 42
    63 145
    64 98
    65 160
    66 106
    67 174
    68 4
    69 157
    70 144
    71 138
    72 171
    73 98
    74 117
    75 1
    76 164
    77 33
    78 92
    79 179
    80 177
    81 35
    82 113
    83 89
    84 144
    85 162
    86 23
    87 95
    88 167
    89 68
    90 27
    91 138
    92 18
    93 97
    94 75
    95 132
    96 70
    97 4
    98 137
    99 156
    100 136
    101 55
    102 142
    103 136
    104 115
    105 67
    106 152
    107 184
    108 31
    109 138
    110 120
    111 90
    112 81
    113 18
    114 34
    115 111
    116 60
    117 89
    118 131
    119 22
    120 170
    121 142
    122 18
    123 115
    124 50
    125 26
    126 97
    127 4
    128 112
    129 152
    130 38
    131 139
    132 108
    133 93
    134 156
    135 158
    136 157
    137 24
    138 103
    139 31
    140 45
    141 8
    142 129
    143 105
    144 103
    145 173
    146 18
    147 94
    148 81
    149 16
    150 115
    151 94
    152 172
    153 148
    154 98
    155 54
    156 28
    157 10
    158 19
    159 159
    160 60
    161 178
    162 21
    163 17
    164 9
    165 109
    166 70
    167 78
    168 14
    169 9
    170 160
    171 57
    172 9
    173 9
    174 121
    175 174
    176 141
    177 105
    178 106
    179 146
    180 84
    181 83
    182 69
    183 119
    184 92
    185 15
    186 138
    187 114
    188 184
    189 120
    190 11
    191 89
    192 28
    193 40
    194 121
    195 50
    196 27
    197 61
    198 10
    199 178
    200 133
    201 87
    202 157
    203 140
    204 47
    205 132
    206 88
    207 161
    208 25
    209 109
    210 92
    211 179
    212 177
    213 162
    214 68
    215 183
    216 29
    217 164
    218 176
    219 173
    220 154
    221 12
    222 83
    223 38
    224 109
    225 26
    226 87
    227 68
    228 181
    229 148
    230 111
    231 113
    232 7
    233 122
    234 63
    235 162
    236 91
    237 145
    238 36
    239 65
    240 51
    241 131
    242 17
    243 69
    244 8
    245 126
    246 6
    247 90
    248 153
    249 178
    250 68;

param T := 154;
param R := 184;
param M := 1000000;

end;